\* metodo2 *\
Maximize
Total_de_calorias: 278.4918 Alim_Leche_descremada
Subject To
Limite_inferior_de_proteinas: 40.8678 Alim_Leche_descremada >= 23.4670955882
_C1: 278.4918 Alim_Leche_descremada <= 335.356798581
_C2: 278.4918 Alim_Leche_descremada <= 318.588958652
End
